param n := 120;
param c := 1000;
param : V : p w :=
   0	  73	 458
   1	  67	 252
   2	  22	 290
   3	  21	 497
   4	  71	 250
   5	  74	 253
   6	  41	 446
   7	  63	 276
   8	  83	 278
   9	  16	 387
  10	  39	 274
  11	  57	 339
  12	  63	 462
  13	  32	 268
  14	  77	 270
  15	  43	 472
  16	  39	 258
  17	  69	 270
  18	  63	 377
  19	  93	 276
  20	  58	 347
  21	   9	 484
  22	  62	 253
  23	   3	 263
  24	  61	 490
  25	  35	 252
  26	  52	 258
  27	  69	 414
  28	  89	 250
  29	   7	 336
  30	  69	 493
  31	  34	 253
  32	  68	 254
  33	   4	 470
  34	   1	 257
  35	  97	 273
  36	  76	 403
  37	  27	 262
  38	  39	 335
  39	  25	 433
  40	  34	 273
  41	  16	 294
  42	  73	 375
  43	   7	 276
  44	  37	 349
  45	  43	 422
  46	  60	 276
  47	  19	 302
  48	  34	 446
  49	  57	 274
  50	  83	 280
  51	  55	 352
  52	  96	 318
  53	  40	 330
  54	  11	 402
  55	  42	 269
  56	  86	 329
  57	  52	 436
  58	  60	 254
  59	  57	 310
  60	  49	 357
  61	  60	 268
  62	  76	 375
  63	  20	 410
  64	  78	 262
  65	  49	 328
  66	  89	 352
  67	  18	 275
  68	  80	 373
  69	   3	 423
  70	   1	 262
  71	   6	 315
  72	  25	 426
  73	  17	 266
  74	  92	 308
  75	   6	 388
  76	  38	 251
  77	  76	 361
  78	  37	 386
  79	  81	 272
  80	  45	 342
  81	  30	 374
  82	  37	 254
  83	  75	 372
  84	  18	 408
  85	  65	 287
  86	  12	 305
  87	  83	 442
  88	  32	 252
  89	  65	 306
  90	  62	 364
  91	  62	 302
  92	  94	 334
  93	  83	 363
  94	  49	 265
  95	  87	 372
  96	  99	 396
  97	  86	 292
  98	  71	 312
  99	  30	 485
 100	  73	 255
 101	  67	 260
 102	  25	 436
 103	  57	 256
 104	  49	 308
 105	  42	 445
 106	 100	 270
 107	  27	 285
 108	  27	 419
 109	   6	 275
 110	  52	 306
 111	   4	 427
 112	  64	 250
 113	  44	 323
 114	  24	 490
 115	  29	 252
 116	  47	 258
 117	  32	 496
 118	  73	 250
 119	   3	 254
;

set E :=
   0	   1
   0	   6
   0	  10
   0	  14
   0	  15
   0	  32
   0	  33
   0	  42
   0	  55
   0	  56
   0	  60
   0	  61
   0	  64
   0	  65
   0	  74
   0	  89
   0	  90
   0	  92
   0	  93
   0	  94
   0	  98
   0	  99
   0	 103
   0	 106
   0	 107
   0	 112
   1	  10
   1	  20
   1	  21
   1	  23
   1	  29
   1	  42
   1	  45
   1	  52
   1	  56
   1	  78
   1	  84
   1	  89
   1	  94
   1	  95
   1	  97
   1	 102
   1	 103
   1	 107
   1	 110
   1	 111
   1	 112
   1	 114
   1	 115
   1	 116
   1	 118
   2	   6
   2	   9
   2	  12
   2	  14
   2	  18
   2	  24
   2	  32
   2	  38
   2	  40
   2	  44
   2	  51
   2	  52
   2	  54
   2	  64
   2	  66
   2	  67
   2	  69
   2	  75
   2	  77
   2	  85
   2	  89
   2	  93
   2	  94
   2	  96
   2	 100
   2	 101
   2	 106
   2	 115
   3	   5
   3	  13
   3	  16
   3	  21
   3	  27
   3	  29
   3	  36
   3	  50
   3	  53
   3	  56
   3	  60
   3	  62
   3	  86
   3	  90
   3	 103
   3	 107
   3	 112
   3	 115
   3	 117
   3	 119
   4	  10
   4	  14
   4	  18
   4	  19
   4	  22
   4	  24
   4	  28
   4	  30
   4	  38
   4	  39
   4	  40
   4	  43
   4	  46
   4	  52
   4	  53
   4	  71
   4	  72
   4	  78
   4	  82
   4	  85
   4	  94
   4	  95
   4	  98
   4	 101
   4	 105
   4	 108
   4	 111
   4	 118
   4	 119
   5	  13
   5	  15
   5	  26
   5	  28
   5	  32
   5	  33
   5	  34
   5	  36
   5	  40
   5	  42
   5	  46
   5	  56
   5	  61
   5	  72
   5	  87
   5	  92
   5	  96
   5	 100
   5	 112
   5	 113
   5	 116
   5	 117
   6	   7
   6	  10
   6	  16
   6	  19
   6	  23
   6	  36
   6	  41
   6	  44
   6	  49
   6	  51
   6	  61
   6	  62
   6	  65
   6	  72
   6	  80
   6	  90
   6	  96
   6	  98
   6	  99
   6	 107
   6	 108
   6	 109
   7	   9
   7	  12
   7	  15
   7	  16
   7	  19
   7	  30
   7	  32
   7	  42
   7	  47
   7	  49
   7	  51
   7	  62
   7	  63
   7	  66
   7	  67
   7	  68
   7	  69
   7	  86
   7	  88
   7	  95
   7	  97
   7	 108
   7	 111
   7	 116
   8	   9
   8	  14
   8	  24
   8	  31
   8	  38
   8	  42
   8	  48
   8	  58
   8	  59
   8	  72
   8	  77
   8	  82
   8	  85
   8	  87
   8	  91
   8	  99
   8	 100
   8	 103
   8	 105
   8	 107
   8	 110
   8	 112
   8	 114
   8	 115
   9	  11
   9	  13
   9	  20
   9	  26
   9	  27
   9	  29
   9	  35
   9	  40
   9	  49
   9	  50
   9	  55
   9	  65
   9	  66
   9	  67
   9	  84
   9	  85
   9	  91
   9	  92
   9	  95
   9	 101
   9	 110
   9	 111
   9	 114
  10	  11
  10	  12
  10	  17
  10	  33
  10	  53
  10	  59
  10	  62
  10	  63
  10	  67
  10	  71
  10	  72
  10	  76
  10	  81
  10	  93
  10	  97
  10	  99
  10	 103
  10	 119
  11	  16
  11	  17
  11	  32
  11	  33
  11	  36
  11	  49
  11	  59
  11	  66
  11	  81
  11	  86
  11	 101
  11	 105
  11	 111
  12	  13
  12	  15
  12	  16
  12	  21
  12	  30
  12	  33
  12	  41
  12	  45
  12	  47
  12	  51
  12	  52
  12	  61
  12	  65
  12	  66
  12	  69
  12	  76
  12	  80
  12	  81
  12	  93
  12	 102
  12	 103
  12	 108
  12	 109
  12	 115
  13	  15
  13	  19
  13	  27
  13	  45
  13	  47
  13	  50
  13	  53
  13	  55
  13	  65
  13	  67
  13	  68
  13	  70
  13	  84
  13	  85
  13	  98
  13	  99
  13	 111
  13	 113
  13	 114
  13	 116
  13	 118
  14	  19
  14	  23
  14	  25
  14	  26
  14	  27
  14	  29
  14	  33
  14	  37
  14	  49
  14	  50
  14	  52
  14	  60
  14	  66
  14	  67
  14	  71
  14	  73
  14	  76
  14	  79
  14	  85
  14	  86
  14	  90
  14	  92
  14	  97
  14	 106
  14	 107
  14	 109
  14	 118
  15	  18
  15	  28
  15	  39
  15	  42
  15	  44
  15	  54
  15	  58
  15	  60
  15	  61
  15	  62
  15	  65
  15	  69
  15	  75
  15	  81
  15	  82
  15	  97
  15	 103
  15	 107
  15	 109
  15	 110
  15	 112
  15	 113
  16	  17
  16	  19
  16	  22
  16	  26
  16	  37
  16	  56
  16	  57
  16	  60
  16	  74
  16	  75
  16	  77
  16	  87
  16	  98
  16	  99
  16	 100
  16	 103
  16	 106
  16	 109
  16	 116
  16	 119
  17	  18
  17	  27
  17	  33
  17	  36
  17	  38
  17	  39
  17	  43
  17	  45
  17	  49
  17	  50
  17	  52
  17	  60
  17	  61
  17	  66
  17	  67
  17	  69
  17	  72
  17	  76
  17	  79
  17	  87
  17	  98
  17	  99
  17	 102
  17	 103
  17	 105
  17	 106
  18	  24
  18	  28
  18	  42
  18	  60
  18	  62
  18	  63
  18	  66
  18	  67
  18	  68
  18	  70
  18	  81
  18	  86
  18	  88
  18	  91
  18	  93
  18	  96
  18	 107
  18	 109
  18	 119
  19	  22
  19	  24
  19	  34
  19	  35
  19	  38
  19	  60
  19	  64
  19	  79
  19	  96
  19	  99
  19	 105
  19	 110
  19	 113
  19	 116
  19	 117
  20	  26
  20	  32
  20	  38
  20	  40
  20	  44
  20	  45
  20	  46
  20	  49
  20	  53
  20	  61
  20	  62
  20	  65
  20	  70
  20	  75
  20	  76
  20	  82
  20	  83
  20	  93
  20	  94
  20	  96
  20	 103
  20	 106
  20	 111
  20	 112
  21	  26
  21	  31
  21	  33
  21	  38
  21	  39
  21	  46
  21	  52
  21	  56
  21	  59
  21	  64
  21	  65
  21	  70
  21	  73
  21	  90
  21	  93
  21	  94
  21	  98
  21	  99
  21	 110
  21	 111
  21	 114
  22	  24
  22	  26
  22	  32
  22	  47
  22	  50
  22	  53
  22	  54
  22	  75
  22	  84
  22	  87
  22	 105
  22	 108
  22	 110
  22	 111
  22	 114
  22	 116
  22	 117
  22	 119
  23	  35
  23	  41
  23	  42
  23	  49
  23	  50
  23	  53
  23	  57
  23	  60
  23	  73
  23	  74
  23	  75
  23	  81
  23	  82
  23	  86
  23	  89
  23	  90
  23	  91
  23	  97
  23	 104
  23	 108
  23	 110
  23	 112
  23	 116
  24	  25
  24	  29
  24	  40
  24	  41
  24	  42
  24	  46
  24	  48
  24	  53
  24	  54
  24	  55
  24	  61
  24	  65
  24	  69
  24	  73
  24	  86
  24	  88
  24	  90
  24	 102
  24	 105
  24	 109
  24	 119
  25	  26
  25	  31
  25	  34
  25	  38
  25	  44
  25	  48
  25	  53
  25	  55
  25	  61
  25	  69
  25	  71
  25	  73
  25	  74
  25	  85
  25	  92
  25	  96
  25	  97
  25	  98
  25	 104
  25	 110
  25	 111
  25	 115
  26	  32
  26	  34
  26	  37
  26	  40
  26	  41
  26	  42
  26	  48
  26	  53
  26	  55
  26	  57
  26	  60
  26	  65
  26	  66
  26	  85
  26	  88
  26	  91
  26	  97
  26	 102
  26	 113
  26	 115
  26	 116
  27	  33
  27	  35
  27	  39
  27	  57
  27	  61
  27	  66
  27	  73
  27	  75
  27	  76
  27	  78
  27	  81
  27	  82
  27	  89
  27	  96
  27	 104
  27	 108
  27	 109
  27	 110
  27	 115
  27	 119
  28	  29
  28	  36
  28	  38
  28	  41
  28	  43
  28	  54
  28	  63
  28	  69
  28	  75
  28	  93
  28	 101
  28	 112
  28	 113
  28	 114
  29	  30
  29	  32
  29	  33
  29	  40
  29	  45
  29	  49
  29	  65
  29	  71
  29	  80
  29	  83
  29	  91
  29	  95
  29	  97
  29	  98
  29	 107
  29	 109
  29	 114
  29	 119
  30	  37
  30	  39
  30	  41
  30	  48
  30	  49
  30	  55
  30	  57
  30	  68
  30	  71
  30	  81
  30	  83
  30	  84
  30	 110
  30	 113
  30	 115
  30	 116
  31	  34
  31	  37
  31	  42
  31	  45
  31	  50
  31	  53
  31	  57
  31	  60
  31	  61
  31	  66
  31	  74
  31	  75
  31	  81
  31	  87
  31	  88
  31	  94
  31	  97
  31	  99
  31	 102
  31	 117
  32	  33
  32	  36
  32	  44
  32	  65
  32	  74
  32	  75
  32	  78
  32	  82
  32	  87
  32	  90
  32	  91
  32	  93
  32	  98
  32	 105
  32	 106
  32	 107
  32	 111
  32	 112
  32	 113
  32	 115
  33	  41
  33	  45
  33	  48
  33	  52
  33	  55
  33	  56
  33	  65
  33	  68
  33	  70
  33	  86
  33	  89
  33	  96
  33	 103
  33	 110
  33	 114
  33	 116
  33	 117
  33	 118
  33	 119
  34	  36
  34	  39
  34	  41
  34	  47
  34	  50
  34	  54
  34	  65
  34	  71
  34	  72
  34	  76
  34	  98
  34	 102
  34	 114
  34	 115
  34	 117
  34	 119
  35	  36
  35	  37
  35	  43
  35	  52
  35	  55
  35	  62
  35	  64
  35	  70
  35	  71
  35	  73
  35	  74
  35	  78
  35	  84
  35	  99
  35	 106
  35	 112
  35	 119
  36	  45
  36	  46
  36	  64
  36	  79
  36	  83
  36	  90
  36	 105
  36	 109
  36	 115
  36	 118
  37	  38
  37	  42
  37	  44
  37	  52
  37	  53
  37	  54
  37	  66
  37	  69
  37	  72
  37	  78
  37	  87
  37	  88
  37	  91
  37	  94
  37	 106
  37	 109
  37	 110
  37	 117
  37	 119
  38	  43
  38	  52
  38	  54
  38	  62
  38	  66
  38	  69
  38	  72
  38	  81
  38	  93
  38	 115
  38	 116
  38	 118
  39	  41
  39	  52
  39	  55
  39	  57
  39	  61
  39	  62
  39	  72
  39	 105
  39	 117
  40	  48
  40	  50
  40	  53
  40	  61
  40	  65
  40	  68
  40	  72
  40	  80
  40	  84
  40	  88
  40	  99
  40	 105
  40	 107
  41	  50
  41	  52
  41	  54
  41	  56
  41	  58
  41	  61
  41	  74
  41	  75
  41	  82
  41	  83
  41	  84
  41	  86
  41	  91
  41	  92
  41	  93
  41	  98
  41	 103
  41	 110
  41	 112
  42	  45
  42	  47
  42	  51
  42	  54
  42	  55
  42	  56
  42	  58
  42	  60
  42	  67
  42	  68
  42	  69
  42	  73
  42	  83
  42	  88
  42	  91
  42	  95
  42	  98
  42	 100
  42	 101
  42	 106
  42	 114
  43	  48
  43	  58
  43	  59
  43	  61
  43	  65
  43	  73
  43	  78
  43	  80
  43	  83
  43	  91
  43	  93
  43	  99
  43	 100
  43	 103
  43	 114
  43	 116
  44	  60
  44	  72
  44	  82
  44	  85
  44	  86
  44	  89
  44	 100
  44	 110
  44	 111
  44	 115
  44	 118
  45	  46
  45	  49
  45	  50
  45	  54
  45	  55
  45	  78
  45	  79
  45	  82
  45	  87
  45	  91
  45	  95
  45	  96
  45	  98
  45	 100
  45	 101
  45	 103
  45	 113
  46	  59
  46	  62
  46	  64
  46	  65
  46	  69
  46	  75
  46	  79
  46	  81
  46	  85
  46	  89
  46	  91
  46	  93
  46	  98
  46	 105
  46	 106
  46	 107
  46	 115
  47	  50
  47	  53
  47	  56
  47	  57
  47	  64
  47	  66
  47	  75
  47	  76
  47	  89
  47	  98
  47	 111
  47	 117
  48	  52
  48	  54
  48	  59
  48	  64
  48	  68
  48	  74
  48	  76
  48	  85
  48	  92
  48	 100
  49	  59
  49	  70
  49	  71
  49	  81
  49	  82
  49	  84
  49	  94
  49	  99
  49	 100
  49	 106
  49	 114
  50	  58
  50	  62
  50	  63
  50	  65
  50	  67
  50	  68
  50	  74
  50	  79
  50	  82
  50	  85
  50	  87
  50	  88
  50	  97
  50	 101
  50	 108
  50	 113
  50	 116
  51	  55
  51	  61
  51	  71
  51	  75
  51	  76
  51	  78
  51	  82
  51	  86
  51	  89
  51	 100
  51	 101
  51	 102
  51	 103
  51	 105
  51	 107
  51	 108
  51	 110
  51	 113
  52	  53
  52	  62
  52	  73
  52	  80
  52	  84
  52	  88
  52	  89
  52	  95
  52	 101
  52	 108
  52	 118
  53	  58
  53	  63
  53	  82
  53	  83
  53	  95
  53	 101
  53	 102
  53	 117
  54	  59
  54	  63
  54	  65
  54	  67
  54	  72
  54	  89
  54	  97
  54	 100
  54	 103
  55	  56
  55	  57
  55	  68
  55	  77
  55	  87
  55	  90
  55	  94
  55	 106
  55	 113
  55	 115
  56	  75
  56	  83
  56	  89
  56	  90
  56	  92
  56	  97
  56	 103
  56	 105
  56	 112
  57	  60
  57	  69
  57	  74
  57	  83
  57	  87
  57	  88
  57	  97
  57	 102
  57	 104
  57	 110
  57	 112
  57	 113
  57	 117
  58	  68
  58	  71
  58	  74
  58	  76
  58	  77
  58	  78
  58	  81
  58	  84
  58	  88
  58	  89
  58	  90
  58	  91
  58	  97
  58	  99
  58	 102
  58	 104
  58	 107
  58	 108
  59	  60
  59	  64
  59	  68
  59	  73
  59	  75
  59	  78
  59	  80
  59	  84
  59	  88
  59	  89
  59	  91
  59	  96
  59	 101
  59	 104
  59	 118
  60	  63
  60	  67
  60	  70
  60	  73
  60	  84
  60	  95
  60	 102
  60	 111
  60	 112
  60	 116
  60	 117
  61	  63
  61	  68
  61	  71
  61	  74
  61	  80
  61	  83
  61	  84
  61	  85
  61	  86
  61	  87
  61	  88
  61	  89
  61	  91
  61	  96
  61	 116
  62	  73
  62	  74
  62	  76
  62	  94
  62	 109
  63	  81
  63	  83
  63	  92
  63	  95
  63	  97
  63	 108
  63	 109
  63	 111
  63	 113
  64	  66
  64	  67
  64	  71
  64	  76
  64	  78
  64	  79
  64	  80
  64	  83
  64	  84
  64	  95
  64	  98
  64	 100
  64	 105
  64	 106
  64	 107
  64	 112
  64	 114
  64	 116
  65	  68
  65	  83
  65	  93
  65	  94
  65	  97
  65	 101
  65	 102
  65	 106
  65	 108
  65	 110
  65	 112
  66	  67
  66	  73
  66	  74
  66	  77
  66	  78
  66	  80
  66	  83
  66	  95
  66	 101
  66	 102
  66	 105
  66	 107
  66	 110
  66	 111
  66	 118
  67	  68
  67	  70
  67	  76
  67	  78
  67	  79
  67	  88
  67	 101
  67	 103
  67	 104
  67	 108
  67	 109
  67	 111
  67	 113
  67	 114
  67	 116
  68	  70
  68	  74
  68	  75
  68	  78
  68	  81
  68	  84
  68	  86
  68	  97
  68	 100
  68	 107
  68	 112
  68	 119
  69	  70
  69	  81
  69	  90
  69	  95
  69	 102
  69	 105
  69	 110
  69	 116
  69	 119
  70	  71
  70	  78
  70	  83
  70	  94
  70	 101
  70	 105
  70	 106
  70	 110
  70	 114
  70	 115
  70	 116
  71	  73
  71	  74
  71	  78
  71	  82
  71	  89
  71	  90
  71	  97
  71	  99
  71	 101
  71	 102
  71	 110
  71	 114
  72	  74
  72	  82
  72	  86
  72	  94
  72	  95
  72	 105
  72	 109
  72	 110
  72	 111
  72	 118
  73	  79
  73	  84
  73	  90
  73	  96
  73	 102
  73	 107
  73	 113
  73	 114
  73	 115
  73	 119
  74	  75
  74	  90
  74	 102
  74	 104
  74	 107
  74	 114
  75	  78
  75	  80
  75	  83
  75	  85
  75	  89
  75	  93
  75	  95
  75	  98
  75	 102
  75	 104
  75	 106
  75	 111
  76	  78
  76	  87
  76	  91
  76	 102
  76	 103
  76	 104
  76	 113
  76	 114
  76	 119
  77	  79
  77	  80
  77	  89
  77	 102
  77	 105
  77	 113
  77	 116
  78	  80
  78	  83
  78	  84
  78	  86
  78	  88
  78	  90
  78	  92
  78	 103
  78	 107
  78	 108
  79	  84
  79	 105
  79	 107
  79	 112
  79	 114
  79	 118
  80	  95
  80	 100
  80	 102
  80	 103
  80	 109
  80	 117
  81	  86
  81	  99
  81	 106
  81	 113
  81	 114
  81	 116
  82	  84
  82	  88
  82	  98
  82	 102
  82	 104
  82	 110
  83	  92
  83	  98
  83	 105
  83	 107
  84	  98
  84	 100
  84	 106
  84	 109
  84	 110
  85	  88
  85	  95
  85	  96
  85	 113
  86	  88
  86	  91
  86	  96
  86	  99
  86	 104
  86	 109
  86	 110
  87	  88
  87	  98
  87	 102
  87	 107
  87	 113
  87	 116
  87	 118
  87	 119
  88	  90
  88	  91
  88	  94
  88	  98
  88	  99
  88	 104
  88	 108
  88	 111
  88	 113
  88	 118
  89	  92
  89	  93
  89	  95
  89	 101
  89	 107
  89	 109
  89	 111
  89	 113
  90	  97
  90	 111
  90	 112
  90	 114
  90	 119
  91	 105
  91	 112
  92	  94
  92	  99
  92	 100
  92	 103
  93	  98
  93	 104
  93	 107
  93	 116
  93	 118
  94	  97
  94	 105
  94	 111
  94	 114
  94	 117
  95	 103
  95	 105
  95	 107
  95	 108
  96	  97
  96	 106
  96	 111
  96	 113
  96	 115
  97	 100
  97	 103
  97	 105
  97	 107
  97	 112
  97	 118
  98	 106
  98	 109
  98	 114
  99	 103
  99	 104
  99	 105
  99	 106
 101	 115
 101	 118
 101	 119
 102	 104
 102	 107
 102	 112
 102	 115
 102	 119
 103	 108
 103	 110
 103	 111
 103	 117
 104	 106
 104	 108
 104	 114
 104	 118
 105	 110
 105	 114
 106	 111
 106	 113
 106	 116
 106	 118
 106	 119
 107	 109
 107	 110
 107	 111
 107	 119
 108	 114
 109	 112
 109	 115
 109	 117
 110	 115
 111	 119
 112	 117
 113	 116
 113	 117
 114	 117
;
